(set-info :smt-lib-version 2.6)
(set-info :category "crafted")
(set-logic QF_FF)
(define-sort FF0 () (_ FiniteField 52435875175126190479447740508185965837690552500527637822603658699938581184513))
(declare-fun i () Bool)
(declare-fun a () Bool)
(declare-fun d () Bool)
(declare-fun b () Bool)
(declare-fun j () Bool)
(declare-fun c () Bool)
(declare-fun g () Bool)
(declare-fun e () Bool)
(declare-fun f () Bool)
(declare-fun h () Bool)
(declare-fun out () FF0)
(declare-fun _121 () FF0)
(declare-fun _109 () FF0)
(declare-fun _120 () FF0)
(declare-fun _110 () FF0)
(declare-fun _119 () FF0)
(declare-fun _115 () FF0)
(declare-fun _114 () FF0)
(declare-fun _117 () FF0)
(declare-fun _105 () FF0)
(declare-fun _85 () FF0)
(declare-fun _84 () FF0)
(declare-fun _79 () FF0)
(declare-fun _78 () FF0)
(declare-fun _89 () FF0)
(declare-fun _66 () FF0)
(declare-fun _95 () FF0)
(declare-fun _94 () FF0)
(declare-fun _71 () FF0)
(declare-fun _108 () FF0)
(declare-fun _65 () FF0)
(declare-fun _107 () FF0)
(declare-fun _106 () FF0)
(declare-fun _63 () FF0)
(declare-fun _62 () FF0)
(declare-fun _53 () FF0)
(declare-fun _104 () FF0)
(declare-fun _103 () FF0)
(declare-fun _102 () FF0)
(declare-fun _8 () FF0)
(declare-fun _101 () FF0)
(declare-fun _100 () FF0)
(declare-fun _74 () FF0)
(declare-fun _99 () FF0)
(declare-fun _98 () FF0)
(declare-fun _97 () FF0)
(declare-fun _54 () FF0)
(declare-fun _58 () FF0)
(declare-fun _31 () FF0)
(declare-fun _30 () FF0)
(declare-fun _88 () FF0)
(declare-fun _44 () FF0)
(declare-fun _4 () FF0)
(declare-fun _14 () FF0)
(declare-fun _13 () FF0)
(declare-fun _0 () FF0)
(declare-fun _6 () FF0)
(declare-fun _72 () FF0)
(declare-fun _1 () FF0)
(declare-fun _22 () FF0)
(declare-fun _25 () FF0)
(declare-fun _70 () FF0)
(declare-fun _9 () FF0)
(declare-fun _69 () FF0)
(declare-fun _7 () FF0)
(declare-fun _68 () FF0)
(declare-fun _57 () FF0)
(declare-fun _5 () FF0)
(declare-fun _56 () FF0)
(declare-fun _45 () FF0)
(declare-fun _3 () FF0)
(declare-fun _52 () FF0)
(declare-fun _41 () FF0)
(declare-fun _51 () FF0)
(declare-fun _50 () FF0)
(declare-fun _49 () FF0)
(declare-fun _48 () FF0)
(declare-fun _47 () FF0)
(declare-fun _46 () FF0)
(declare-fun _24 () FF0)
(declare-fun _43 () FF0)
(declare-fun _42 () FF0)
(declare-fun _40 () FF0)
(declare-fun _39 () FF0)
(declare-fun _38 () FF0)
(declare-fun _37 () FF0)
(declare-fun _36 () FF0)
(declare-fun _35 () FF0)
(declare-fun _34 () FF0)
(declare-fun _2 () FF0)
(declare-fun _33 () FF0)
(declare-fun _23 () FF0)
(declare-fun _21 () FF0)
(declare-fun _20 () FF0)
(declare-fun _19 () FF0)
(declare-fun _18 () FF0)
(declare-fun _17 () FF0)
(declare-fun _16 () FF0)
(assert 
  (let ((let0 i))
  (let ((let1 a))
  (let ((let2 d))
  (let ((let3 b))
  (let ((let4 (ite let3 let2 let1)))
  (let ((let5 j))
  (let ((let6 c))
  (let ((let7 g))
  (let ((let8 e))
  (let ((let9 (and let6 let0 let8 let7 let4 let6 let2 let5)))
  (let ((let10 f))
  (let ((let11 (and let10 let9 let1)))
  (let ((let12 (= let3 let11)))
  (let ((let13 h))
  (let ((let14 (ite let8 let13 let13)))
  (let ((let15 (ite let11 let0 let14)))
  (let ((let16 (and let7 let15 let6 let9 let10 let5 let14 let1 let12 let4)))
  (let ((let17 (or let12 let15 let5 let16)))
  (let ((let18 (and let8 let11)))
  (let ((let19 (or let17 let11 let16 let9 let18 let18 let17 let4 let16)))
  (let ((let20 (= let14 let12)))
  (let ((let21 (or let2 let13 let18 let10)))
  (let ((let22 (ite let21 let20 let19)))
  (let ((let23 (=> let22 let0)))
  (let ((let24 (or let3 let21)))
  (let ((let25 (not let19)))
  (let ((let26 (and let25 let7 let14 let5 let24)))
  (let ((let27 (= let26 let12)))
  (let ((let28 (and let9 let1)))
  (let ((let29 (ite let28 let3 let27)))
  (let ((let30 (ite let1 let7 let4)))
  (let ((let31 (not let30)))
  (let ((let32 (=> let17 let8)))
  (let ((let33 (= let32 let31)))
  (let ((let34 (ite let21 let15 let20)))
  (let ((let35 (and let34 let34 let28 let33 let28 let23 let0 let33 let23 let31)))
  (let ((let36 (or let19 let22 let35 let29 let23)))
  (let ((let37 (=> let34 let26)))
  (let ((let38 (ite let33 let24 let29)))
  (let ((let39 (= let31 let35)))
  (let ((let40 (and let39 let38 let37 let36)))
  (let ((let41 out))
  (let ((let42 (as ff1 FF0)))
  (let ((let43 (= let42 let41)))
  (let ((let44 (= let43 let40)))
  (let ((let45 (as ff0 FF0)))
  (let ((let46 (= let45 let41)))
  (let ((let47 (or let43 let46)))
  (let ((let48 (and let47 let44)))
  (let ((let49 _121))
  (let ((let50 _109))
  (let ((let51 _120))
  (let ((let52 (ff.mul let51 let50)))
  (let ((let53 (= let52 let49)))
  (let ((let54 _110))
  (let ((let55 _119))
  (let ((let56 (ff.mul let55 let54)))
  (let ((let57 (= let56 let51)))
  (let ((let58 _115))
  (let ((let59 _114))
  (let ((let60 (ff.add let59 let58)))
  (let ((let61 (as ff52435875175126190479447740508185965837690552500527637822603658699938581184512 FF0)))
  (let ((let62 _117))
  (let ((let63 (ff.mul let62 let61)))
  (let ((let64 (ff.add let63 let42)))
  (let ((let65 (ff.mul let64 let60)))
  (let ((let66 (= let65 let55)))
  (let ((let67 _105))
  (let ((let68 (ff.mul let67 let61)))
  (let ((let69 _85))
  (let ((let70 (ff.mul let69 let61)))
  (let ((let71 _84))
  (let ((let72 (ff.mul let71 let61)))
  (let ((let73 (ff.add let72 let70 let68 let42)))
  (let ((let74 (ff.mul let73 let73)))
  (let ((let75 (= let74 let62)))
  (let ((let76 _79))
  (let ((let77 _78))
  (let ((let78 (ff.add let77 let76)))
  (let ((let79 _89))
  (let ((let80 (ff.mul let79 let78)))
  (let ((let81 (= let80 let58)))
  (let ((let82 _66))
  (let ((let83 (ff.mul let79 let61)))
  (let ((let84 (ff.add let83 let42)))
  (let ((let85 (ff.mul let84 let82)))
  (let ((let86 (= let85 let59)))
  (let ((let87 (ff.mul let54 let61)))
  (let ((let88 _95))
  (let ((let89 (ff.mul let88 let61)))
  (let ((let90 _94))
  (let ((let91 (ff.mul let90 let61)))
  (let ((let92 _71))
  (let ((let93 (ff.add let92 let91 let89 let87 let42)))
  (let ((let94 (ff.add let91 let89 let42)))
  (let ((let95 (ff.mul let94 let92)))
  (let ((let96 (= let95 let93)))
  (let ((let97 (ff.mul let50 let61)))
  (let ((let98 _108))
  (let ((let99 _65))
  (let ((let100 (ff.add let99 let98 let97)))
  (let ((let101 (ff.mul let98 let99)))
  (let ((let102 (= let101 let100)))
  (let ((let103 (ff.mul let98 let61)))
  (let ((let104 _107))
  (let ((let105 (ff.add let77 let76 let104 let103)))
  (let ((let106 (ff.mul let104 let78)))
  (let ((let107 (= let106 let105)))
  (let ((let108 (ff.mul let104 let61)))
  (let ((let109 _106))
  (let ((let110 (ff.add let67 let109 let108)))
  (let ((let111 (ff.mul let109 let67)))
  (let ((let112 (= let111 let110)))
  (let ((let113 (ff.mul let109 let61)))
  (let ((let114 _63))
  (let ((let115 _62))
  (let ((let116 _53))
  (let ((let117 (ff.add let116 let115 let114 let113)))
  (let ((let118 (ff.add let115 let114)))
  (let ((let119 (ff.mul let116 let118)))
  (let ((let120 (= let119 let117)))
  (let ((let121 (ff.add let72 let70 let42)))
  (let ((let122 _104))
  (let ((let123 (ff.mul let122 let121)))
  (let ((let124 (= let123 let67)))
  (let ((let125 _103))
  (let ((let126 (ff.mul let125 let99)))
  (let ((let127 (= let126 let122)))
  (let ((let128 _102))
  (let ((let129 (ff.mul let128 let84)))
  (let ((let130 (= let129 let125)))
  (let ((let131 _8))
  (let ((let132 _101))
  (let ((let133 (ff.mul let132 let131)))
  (let ((let134 (= let133 let128)))
  (let ((let135 _100))
  (let ((let136 (ff.mul let135 let99)))
  (let ((let137 (= let136 let132)))
  (let ((let138 _74))
  (let ((let139 _99))
  (let ((let140 (ff.mul let139 let138)))
  (let ((let141 (= let140 let135)))
  (let ((let142 _98))
  (let ((let143 (ff.mul let142 let84)))
  (let ((let144 (= let143 let139)))
  (let ((let145 _97))
  (let ((let146 (ff.mul let145 let138)))
  (let ((let147 (= let146 let142)))
  (let ((let148 (ff.add let90 let88)))
  (let ((let149 (ff.mul let148 let148)))
  (let ((let150 (= let149 let145)))
  (let ((let151 _54))
  (let ((let152 (ff.mul let151 let61)))
  (let ((let153 (ff.add let152 let42)))
  (let ((let154 _58))
  (let ((let155 (ff.mul let154 let61)))
  (let ((let156 (ff.add let155 let42)))
  (let ((let157 (ff.mul let156 let153)))
  (let ((let158 (= let157 let88)))
  (let ((let159 _31))
  (let ((let160 _30))
  (let ((let161 (ff.add let160 let159)))
  (let ((let162 (ff.mul let154 let161)))
  (let ((let163 (= let162 let90)))
  (let ((let164 _88))
  (let ((let165 (ff.add let71 let69 let164 let61)))
  (let ((let166 (ff.mul let165 let165)))
  (let ((let167 (= let166 let79)))
  (let ((let168 (ff.mul let164 let61)))
  (let ((let169 _44))
  (let ((let170 (ff.mul let169 let61)))
  (let ((let171 _4))
  (let ((let172 (ff.add let171 let170 let168 let42)))
  (let ((let173 (ff.add let170 let42)))
  (let ((let174 (ff.mul let173 let171)))
  (let ((let175 (= let174 let172)))
  (let ((let176 _14))
  (let ((let177 _13))
  (let ((let178 (ff.add let177 let176)))
  (let ((let179 _0))
  (let ((let180 (ff.mul let179 let61)))
  (let ((let181 (ff.add let180 let42)))
  (let ((let182 (ff.mul let181 let178)))
  (let ((let183 (= let182 let69)))
  (let ((let184 _6))
  (let ((let185 (ff.mul let179 let184)))
  (let ((let186 (= let185 let71)))
  (let ((let187 _72))
  (let ((let188 (ff.mul let187 let61)))
  (let ((let189 (ff.add let188 let42)))
  (let ((let190 (ff.mul let138 let61)))
  (let ((let191 (ff.add let190 let42)))
  (let ((let192 (ff.mul let191 let189)))
  (let ((let193 (= let192 let76)))
  (let ((let194 _1))
  (let ((let195 (ff.mul let138 let194)))
  (let ((let196 (= let195 let77)))
  (let ((let197 _22))
  (let ((let198 (ff.mul let197 let179)))
  (let ((let199 (= let198 let138)))
  (let ((let200 _25))
  (let ((let201 (ff.add let200 let92 let61)))
  (let ((let202 (ff.mul let201 let201)))
  (let ((let203 (= let202 let187)))
  (let ((let204 _70))
  (let ((let205 (ff.mul let204 let82)))
  (let ((let206 (= let205 let92)))
  (let ((let207 _9))
  (let ((let208 _69))
  (let ((let209 (ff.mul let208 let207)))
  (let ((let210 (= let209 let204)))
  (let ((let211 _7))
  (let ((let212 _68))
  (let ((let213 (ff.mul let212 let211)))
  (let ((let214 (= let213 let208)))
  (let ((let215 (ff.mul let116 let61)))
  (let ((let216 (ff.add let215 let42)))
  (let ((let217 (ff.mul let216 let184)))
  (let ((let218 (= let217 let212)))
  (let ((let219 (ff.mul let82 let61)))
  (let ((let220 (ff.add let194 let154 let219)))
  (let ((let221 (ff.mul let194 let154)))
  (let ((let222 (= let221 let220)))
  (let ((let223 (ff.mul let99 let61)))
  (let ((let224 (ff.mul let114 let61)))
  (let ((let225 (ff.mul let115 let61)))
  (let ((let226 (ff.add let131 let225 let224 let223 let42)))
  (let ((let227 (ff.add let225 let224 let42)))
  (let ((let228 (ff.mul let227 let131)))
  (let ((let229 (= let228 let226)))
  (let ((let230 (ff.mul let156 let116)))
  (let ((let231 (= let230 let114)))
  (let ((let232 (ff.mul let154 let153)))
  (let ((let233 (= let232 let115)))
  (let ((let234 _57))
  (let ((let235 _5))
  (let ((let236 (ff.add let235 let234 let155)))
  (let ((let237 (ff.mul let234 let235)))
  (let ((let238 (= let237 let236)))
  (let ((let239 (ff.mul let234 let61)))
  (let ((let240 _56))
  (let ((let241 _45))
  (let ((let242 (ff.add let241 let240 let239)))
  (let ((let243 (ff.mul let240 let241)))
  (let ((let244 (= let243 let242)))
  (let ((let245 (ff.mul let240 let61)))
  (let ((let246 _3))
  (let ((let247 (ff.add let246 let211 let245)))
  (let ((let248 (ff.mul let246 let211)))
  (let ((let249 (= let248 let247)))
  (let ((let250 (ff.add let211 let200 let61)))
  (let ((let251 (ff.mul let250 let250)))
  (let ((let252 (= let251 let151)))
  (let ((let253 _52))
  (let ((let254 _41))
  (let ((let255 (ff.add let254 let253 let215)))
  (let ((let256 (ff.mul let253 let254)))
  (let ((let257 (= let256 let255)))
  (let ((let258 (ff.mul let253 let61)))
  (let ((let259 _51))
  (let ((let260 (ff.add let177 let176 let259 let258)))
  (let ((let261 (ff.mul let259 let178)))
  (let ((let262 (= let261 let260)))
  (let ((let263 (ff.mul let259 let61)))
  (let ((let264 _50))
  (let ((let265 (ff.add let169 let264 let263)))
  (let ((let266 (ff.mul let264 let169)))
  (let ((let267 (= let266 let265)))
  (let ((let268 (ff.mul let264 let61)))
  (let ((let269 _49))
  (let ((let270 (ff.add let241 let269 let268)))
  (let ((let271 (ff.mul let269 let241)))
  (let ((let272 (= let271 let270)))
  (let ((let273 (ff.mul let269 let61)))
  (let ((let274 _48))
  (let ((let275 (ff.add let241 let274 let273)))
  (let ((let276 (ff.mul let274 let241)))
  (let ((let277 (= let276 let275)))
  (let ((let278 (ff.mul let274 let61)))
  (let ((let279 _47))
  (let ((let280 (ff.add let197 let279 let278)))
  (let ((let281 (ff.mul let279 let197)))
  (let ((let282 (= let281 let280)))
  (let ((let283 (ff.mul let279 let61)))
  (let ((let284 _46))
  (let ((let285 (ff.add let254 let284 let283)))
  (let ((let286 (ff.mul let284 let254)))
  (let ((let287 (= let286 let285)))
  (let ((let288 (ff.mul let284 let61)))
  (let ((let289 _24))
  (let ((let290 (ff.add let289 let169 let288)))
  (let ((let291 (ff.mul let169 let289)))
  (let ((let292 (= let291 let290)))
  (let ((let293 (ff.mul let171 let289)))
  (let ((let294 (= let293 let241)))
  (let ((let295 _43))
  (let ((let296 (ff.add let254 let295 let170)))
  (let ((let297 (ff.mul let295 let254)))
  (let ((let298 (= let297 let296)))
  (let ((let299 (ff.mul let295 let61)))
  (let ((let300 _42))
  (let ((let301 (ff.add let207 let300 let299)))
  (let ((let302 (ff.mul let300 let207)))
  (let ((let303 (= let302 let301)))
  (let ((let304 (ff.mul let300 let61)))
  (let ((let305 (ff.mul let200 let61)))
  (let ((let306 (ff.add let305 let160 let159 let304 let42)))
  (let ((let307 (ff.add let305 let42)))
  (let ((let308 (ff.mul let307 let161)))
  (let ((let309 (= let308 let306)))
  (let ((let310 _40))
  (let ((let311 (ff.mul let310 let178)))
  (let ((let312 (= let311 let254)))
  (let ((let313 _39))
  (let ((let314 (ff.mul let313 let307)))
  (let ((let315 (= let314 let310)))
  (let ((let316 _38))
  (let ((let317 (ff.mul let316 let179)))
  (let ((let318 (= let317 let313)))
  (let ((let319 _37))
  (let ((let320 (ff.mul let319 let211)))
  (let ((let321 (= let320 let316)))
  (let ((let322 _36))
  (let ((let323 (ff.mul let322 let207)))
  (let ((let324 (= let323 let319)))
  (let ((let325 _35))
  (let ((let326 (ff.mul let325 let235)))
  (let ((let327 (= let326 let322)))
  (let ((let328 _34))
  (let ((let329 (ff.mul let328 let197)))
  (let ((let330 (= let329 let325)))
  (let ((let331 _2))
  (let ((let332 _33))
  (let ((let333 (ff.mul let332 let331)))
  (let ((let334 (= let333 let328)))
  (let ((let335 (ff.mul let184 let161)))
  (let ((let336 (= let335 let332)))
  (let ((let337 (ff.mul let289 let61)))
  (let ((let338 (ff.add let337 let42)))
  (let ((let339 (ff.mul let338 let211)))
  (let ((let340 (= let339 let159)))
  (let ((let341 (ff.mul let289 let131)))
  (let ((let342 (= let341 let160)))
  (let ((let343 (ff.add let194 let337)))
  (let ((let344 (ff.mul let343 let343)))
  (let ((let345 (= let344 let200)))
  (let ((let346 _23))
  (let ((let347 (ff.mul let346 let179)))
  (let ((let348 (= let347 let289)))
  (let ((let349 (ff.mul let235 let197)))
  (let ((let350 (= let349 let346)))
  (let ((let351 _21))
  (let ((let352 (ff.mul let351 let207)))
  (let ((let353 (= let352 let197)))
  (let ((let354 _20))
  (let ((let355 (ff.mul let354 let246)))
  (let ((let356 (= let355 let351)))
  (let ((let357 _19))
  (let ((let358 (ff.mul let357 let331)))
  (let ((let359 (= let358 let354)))
  (let ((let360 _18))
  (let ((let361 (ff.mul let360 let178)))
  (let ((let362 (= let361 let357)))
  (let ((let363 _17))
  (let ((let364 (ff.mul let363 let184)))
  (let ((let365 (= let364 let360)))
  (let ((let366 _16))
  (let ((let367 (ff.mul let366 let171)))
  (let ((let368 (= let367 let363)))
  (let ((let369 (ff.mul let331 let131)))
  (let ((let370 (= let369 let366)))
  (let ((let371 (ff.mul let194 let61)))
  (let ((let372 (ff.add let371 let42)))
  (let ((let373 (ff.mul let372 let179)))
  (let ((let374 (= let373 let176)))
  (let ((let375 (ff.mul let194 let246)))
  (let ((let376 (= let375 let177)))
  (let ((let377 (ff.mul let207 let207)))
  (let ((let378 (= let377 let207)))
  (let ((let379 (ff.mul let131 let131)))
  (let ((let380 (= let379 let131)))
  (let ((let381 (ff.mul let211 let211)))
  (let ((let382 (= let381 let211)))
  (let ((let383 (ff.mul let184 let184)))
  (let ((let384 (= let383 let184)))
  (let ((let385 (ff.mul let235 let235)))
  (let ((let386 (= let385 let235)))
  (let ((let387 (ff.mul let171 let171)))
  (let ((let388 (= let387 let171)))
  (let ((let389 (ff.mul let246 let246)))
  (let ((let390 (= let389 let246)))
  (let ((let391 (ff.mul let331 let331)))
  (let ((let392 (= let391 let331)))
  (let ((let393 (ff.mul let194 let194)))
  (let ((let394 (= let393 let194)))
  (let ((let395 (ff.mul let179 let179)))
  (let ((let396 (= let395 let179)))
  (let ((let397 (and let396 let394 let392 let390 let388 let386 let384 let382 let380 let378 let376 let374 let370 let368 let365 let362 let359 let356 let353 let350 let348 let345 let342 let340 let336 let334 let330 let327 let324 let321 let318 let315 let312 let309 let303 let298 let294 let292 let287 let282 let277 let272 let267 let262 let257 let252 let249 let244 let238 let233 let231 let229 let222 let218 let214 let210 let206 let203 let199 let196 let193 let186 let183 let175 let167 let163 let158 let150 let147 let144 let141 let137 let134 let130 let127 let124 let120 let112 let107 let102 let96 let86 let81 let75 let66 let57 let53)))
  (let ((let398 (ite let3 let42 let45)))
  (let ((let399 (= let194 let398)))
  (let ((let400 (ite let5 let42 let45)))
  (let ((let401 (= let207 let400)))
  (let ((let402 (ite let0 let42 let45)))
  (let ((let403 (= let131 let402)))
  (let ((let404 (ite let6 let42 let45)))
  (let ((let405 (= let331 let404)))
  (let ((let406 (ite let8 let42 let45)))
  (let ((let407 (= let171 let406)))
  (let ((let408 (ite let1 let42 let45)))
  (let ((let409 (= let179 let408)))
  (let ((let410 (ite let7 let42 let45)))
  (let ((let411 (= let184 let410)))
  (let ((let412 (ite let13 let42 let45)))
  (let ((let413 (= let211 let412)))
  (let ((let414 (ite let2 let42 let45)))
  (let ((let415 (= let246 let414)))
  (let ((let416 (ite let10 let42 let45)))
  (let ((let417 (= let235 let416)))
  (let ((let418 (and let417 let415 let413 let411 let409 let407 let405 let403 let401 let399)))
  (let ((let419 (and let418 let397)))
  (let ((let420 (=> let419 let48)))
  (let ((let421 (not let420)))
  let421
))))))))))))))))))))))))))))))))))))))))))))))))))))))))))))))))))))))))))))))))))))))))))))))))))))))))))))))))))))))))))))))))))))))))))))))))))))))))))))))))))))))))))))))))))))))))))))))))))))))))))))))))))))))))))))))))))))))))))))))))))))))))))))))))))))))))))))))))))))))))))))))))))))))))))))))))))))))))))))))))))))))))))))))))))))))))))))))))))))))))))))))))))))))))))))))))))))))))))))))))))))))))))))))))))))))
)
(check-sat)
